70 171101
58 44 59 67 24 50 4 65 2 9 12 21 11 66 39 42 29 23 15 33 55 68 28 49 18 10 54 51 61 25 43 46 30 13 52 70 64 60 7 20 16 3 57 53 31 14 63 69 27 40 17 38 1 5 37 48 36 47 32 8 6 35 56 62 19 26 45 41 34 22 
